1	5	1	2	7	15	0	0	0	0	0	0
1400	1	0	0	0	0	0	0	0	0	0	0
175	1	0	77.75	3.47	1	0	0	0	0	0	0
175	1	0	77.75	3.47	1	0	0	0	0	0	0
175     1       0       77.75   3.47    1       0       0       0       0       0       0
175     1       0       77.75   3.47    1       0       0       0       0       0       0
175     1       0       77.75   3.47    1       0       0       0       0       0       0
50	150	0	0	0	0	3390	0	0	99999	0	0
50	75	0	0	0	0	3390	0	0	99999	0	0
50	25	0	0	0	0	3390	0	0	99999	0	0
50	75	0	0	0	0	3390	0	0	0	0	0
50	25	0	0	0	0	3390	0	0	0	0	0
31	84	0	0	0	0	3390	0	0	0	0	0
39	26	0	0	0	0	3390	0	0	0	0	0
77	30	0	0	0	0	3390	0	0	0	0	0
77      52      0       0       0       0       3390    0       0       0       0       0
40      50      0       0       0       0       3390    0       0       0       0       0
18	75	20	5	15	101	3367	90	0	0	0	0
75	55	20	15	5	609	769	90	0	0	0	0
33	35	10	9	1	128	288	90	0	0	0	0
35	32	10	9	1	101	3382	90	0	0	0	0
23	52	10	4	6	2933	3093	90	0	0	0	0
55	80	10	7	3	991	1151	90	0	0	0	0
62	69	10	9	1	231	391	90	0	0	0	0
50	40	50	40	10	2011	2171	90	0	0	0	0
38	5	30	4	26	101	3355	90	0	0	0	0
92	30	10	3	7	101	3345	90	0	0	0	0
64	46	20	14	6	101	3376	90	0	0	0	0
35	66	10	5	5	129	289	90	0	0	0	0
25	30	10	8	2	688	848	90	0	0	0	0
14	66	10	2	8	1277	1437	90	0	0	0	0
90	35	10	4	6	946	1106	90	0	0	0	0
